c 
c G(k,n,p) graph
c graph gen seed     : 84748
c number of vertices : 80
c max number of edges: 1600
c number of classes  : 2
c edge density       : 0.100000
c edge probability   : 0.200000
c data structure     : sparse
c
c           Graph Stats
c number of vertices  : 80
c nonisolated vertices: 80
c number of edges     : 327
c edge density        : 0.103481
c max degree          : 14
c avg degree          : 8.18
c min degree          : 2
p col 80 327
e 1 80
e 1 73
e 1 50
e 1 33
e 1 30
e 1 12
e 1 5
e 2 78
e 2 72
e 2 68
e 2 46
e 2 44
e 2 27
e 2 14
e 3 65
e 3 53
e 3 51
e 3 36
e 3 35
e 3 29
e 3 13
e 4 72
e 4 70
e 4 68
e 4 61
e 4 58
e 4 57
e 4 56
e 4 55
e 4 46
e 4 15
e 5 78
e 5 63
e 5 55
e 5 52
e 5 38
e 5 23
e 5 14
e 5 6
e 6 69
e 6 66
e 6 50
e 6 37
e 6 36
e 6 34
e 6 31
e 6 22
e 6 13
e 7 78
e 7 72
e 7 57
e 7 56
e 7 49
e 7 47
e 7 46
e 7 45
e 7 15
e 8 62
e 8 54
e 8 41
e 8 21
e 8 16
e 9 53
e 9 37
e 9 13
e 10 64
e 10 53
e 10 51
e 10 41
e 10 39
e 10 36
e 10 21
e 10 18
e 10 16
e 11 67
e 11 62
e 11 59
e 11 54
e 11 51
e 11 41
e 11 30
e 11 29
e 12 55
e 12 47
e 12 44
e 12 26
e 12 19
e 12 15
e 13 71
e 13 58
e 13 46
e 13 44
e 13 38
e 13 28
e 13 27
e 14 79
e 14 51
e 14 40
e 14 35
e 14 34
e 14 33
e 14 30
e 15 79
e 15 73
e 15 69
e 15 59
e 15 51
e 15 50
e 15 40
e 15 37
e 15 36
e 16 74
e 16 72
e 16 56
e 16 49
e 16 27
e 17 78
e 17 63
e 17 57
e 17 38
e 17 28
e 18 78
e 18 72
e 18 71
e 18 57
e 18 45
e 18 44
e 18 32
e 18 23
e 19 69
e 19 59
e 19 53
e 19 35
e 19 33
e 19 29
e 19 20
e 20 71
e 20 61
e 20 58
e 20 57
e 20 56
e 20 52
e 20 48
e 20 47
e 20 38
e 21 78
e 21 72
e 21 63
e 21 57
e 22 61
e 22 58
e 22 42
e 23 79
e 23 67
e 23 54
e 23 39
e 23 30
e 23 29
e 24 72
e 24 71
e 24 56
e 24 55
e 24 38
e 24 32
e 25 71
e 25 70
e 25 63
e 25 56
e 25 49
e 25 47
e 26 76
e 26 75
e 26 37
e 26 35
e 26 34
e 27 66
e 27 41
e 27 33
e 27 31
e 28 80
e 28 79
e 28 66
e 28 39
e 28 36
e 28 31
e 28 30
e 29 72
e 29 70
e 29 63
e 29 57
e 29 56
e 29 52
e 29 32
e 30 74
e 30 71
e 30 63
e 30 49
e 30 47
e 30 38
e 31 77
e 31 68
e 31 63
e 31 52
e 31 49
e 31 43
e 31 32
e 32 80
e 32 75
e 32 73
e 32 60
e 32 53
e 32 36
e 33 77
e 33 61
e 33 57
e 33 48
e 33 44
e 34 77
e 34 61
e 34 58
e 34 49
e 34 43
e 35 71
e 35 68
e 35 61
e 35 47
e 35 43
e 35 42
e 36 68
e 36 44
e 36 38
e 37 72
e 37 56
e 38 79
e 38 67
e 38 65
e 39 74
e 39 49
e 39 48
e 39 44
e 39 42
e 40 78
e 40 71
e 40 57
e 40 52
e 41 77
e 41 57
e 41 55
e 41 44
e 42 75
e 42 67
e 42 64
e 42 53
e 43 79
e 43 73
e 44 79
e 44 73
e 44 67
e 44 59
e 44 50
e 46 76
e 46 50
e 47 80
e 47 67
e 47 65
e 47 62
e 47 53
e 48 79
e 48 75
e 48 60
e 48 50
e 49 73
e 49 53
e 50 74
e 51 77
e 51 55
e 52 80
e 52 73
e 52 67
e 52 62
e 53 74
e 53 68
e 53 63
e 54 77
e 54 74
e 54 72
e 54 68
e 54 58
e 54 55
e 55 80
e 55 79
e 55 73
e 55 69
e 55 67
e 56 76
e 56 73
e 56 69
e 56 59
e 57 69
e 57 60
e 58 79
e 58 69
e 58 65
e 58 64
e 58 60
e 59 71
e 60 77
e 61 75
e 61 65
e 61 64
e 62 68
e 63 76
e 63 69
e 63 65
e 64 77
e 65 72
e 66 78
e 66 74
e 66 70
e 69 78
e 69 72
e 71 79
e 72 79
e 72 73
e 73 78
e 74 75
e 78 80
